NAME : MM24_depots
COMMENT : Instance 24 in MD algorithm. Coordinates of depots and vhcl speeds given.
TYPE : TSP
DIMENSION : 8
EDGE_WEIGHT_TYPE : ATT
NODE_COORD_SECTION
401 79.6179 77.5028 1
402 69.1191 91.4188 1
403 34.5308 78.2551 1
404 94.6817 29.5534 1
405 52.0190 15.1846 1
406 95.3813 84.7911 1
407 7.3596 78.4855 1
408 20.7032 27.0832 1
EOF
